10	5
0	5	3	4	1	2	5
1	2	10	9
2	1	8
3	2	8	7
4	2	7	6
5	2	9	7
6	1	11
7	1	11
8	1	11
9	1	11
10	1	11
11	0
0	0	0	0	0	0	0
1	7	5	5	5	1	2
2	4	2	2	2	1	2
3	6	2	2	3	5	5
4	7	3	5	5	5	2
5	6	3	1	1	2	1
6	5	2	4	2	4	5
7	9	3	3	4	1	2
8	3	1	3	4	5	2
9	3	2	2	2	3	2
10	9	2	4	3	1	3
11	0	0	0	0	0	0
5	5	5	5	5
